p cnf 24 49
4 -6 0
5 -6 0
-4 -5 6 0
2 -8 0
6 -8 0
-2 -6 8 0
-6 -7 0
6 7 0
2 -3 0
6 -3 0
-2 -6 3 0
-8 13 0
8 -13 0
-7 12 0
7 -12 0
12 -14 0
13 -14 0
-12 -13 14 0
10 -16 0
14 -16 0
-10 -14 16 0
-14 -15 0
14 15 0
10 -11 0
14 -11 0
-10 -14 11 0
-16 21 0
16 -21 0
-15 20 0
15 -20 0
20 -22 0
21 -22 0
-20 -21 22 0
18 -24 0
22 -24 0
-18 -22 24 0
-22 -23 0
22 23 0
18 -19 0
22 -19 0
-18 -22 19 0
-24 29 0
24 -29 0
-23 28 0
23 -28 0
-4 0
-5 0
24 0
-23 0
